(declare-sort Loc 0)
(declare-const l0 Loc)
(declare-const l1 Loc)
(declare-const l2 Loc)
(declare-const l3 Loc)
(declare-const l4 Loc)
(declare-const l5 Loc)
(declare-const l6 Loc)
(declare-const l7 Loc)
(declare-const l8 Loc)
(declare-const l9 Loc)
(declare-const l10 Loc)
(declare-const l11 Loc)
(declare-const l12 Loc)
(declare-const l13 Loc)
(declare-const l14 Loc)
(declare-const l15 Loc)
(declare-const l16 Loc)
(declare-const l17 Loc)
(declare-const l18 Loc)
(declare-const l19 Loc)
(declare-const l20 Loc)
(declare-const l21 Loc)
(declare-const l22 Loc)
(declare-const l23 Loc)
(assert (distinct l0 l1 l2 l3 l4 l5 l6 l7 l8 l9 l10 l11 l12 l13 l14 l15 l16 l17 l18 l19 l20 l21 l22 l23))

(define-fun cfg_init ( (pc Loc) (src Loc) (rel Bool) ) Bool
  (and (= pc src) rel))

(define-fun cfg_trans2 ( (pc Loc) (src Loc)
                         (pc1 Loc) (dst Loc)
                         (rel Bool) ) Bool
  (and (= pc src) (= pc1 dst) rel))

(define-fun cfg_trans3 ( (pc Loc) (exit Loc)
                         (pc1 Loc) (call Loc)
                         (pc2 Loc) (return Loc)
                         (rel Bool) ) Bool
  (and (= pc exit) (= pc1 call) (= pc2 return) rel))

(define-fun init_main ( (pc^0 Loc) (i^0 Int) (j^0 Int) (m^0 Int) (n^0 Int) (tmp^0 Int) (tmp___0^0 Int) (x^0 Int) (y^0 Int) ) Bool
  (cfg_init pc^0 l23 true))

(define-fun next_main (
                 (pc^0 Loc) (i^0 Int) (j^0 Int) (m^0 Int) (n^0 Int) (tmp^0 Int) (tmp___0^0 Int) (x^0 Int) (y^0 Int)
                 (pc^post Loc) (i^post Int) (j^post Int) (m^post Int) (n^post Int) (tmp^post Int) (tmp___0^post Int) (x^post Int) (y^post Int)
             ) Bool
  (or
    (cfg_trans2 pc^0 l0 pc^post l1 (and (and (and (and (and (and (and (and (<= (+ 0 n^0) (+ 0 m^0)) (= i^0 i^post)) (= j^0 j^post)) (= m^0 m^post)) (= n^0 n^post)) (= tmp^0 tmp^post)) (= tmp___0^0 tmp___0^post)) (= x^0 x^post)) (= y^0 y^post)))
    (cfg_trans2 pc^0 l0 pc^post l2 (and (and (and (and (and (and (and (and (<= (+ 1 m^0) (+ 0 n^0)) (= x^post 0)) (= i^post (+ 0 m^0))) (= j^0 j^post)) (= m^0 m^post)) (= n^0 n^post)) (= tmp^0 tmp^post)) (= tmp___0^0 tmp___0^post)) (= y^0 y^post)))
    (cfg_trans2 pc^0 l2 pc^post l3 (and (and (and (and (and (and (and (= i^0 i^post) (= j^0 j^post)) (= m^0 m^post)) (= n^0 n^post)) (= tmp^0 tmp^post)) (= tmp___0^0 tmp___0^post)) (= x^0 x^post)) (= y^0 y^post)))
    (cfg_trans2 pc^0 l4 pc^post l5 (and (and (and (and (and (and (and (= i^0 i^post) (= j^0 j^post)) (= m^0 m^post)) (= n^0 n^post)) (= tmp^0 tmp^post)) (= tmp___0^0 tmp___0^post)) (= x^0 x^post)) (= y^0 y^post)))
    (cfg_trans2 pc^0 l6 pc^post l7 (and (and (and (and (and (and (and (= m^post (+ 1 m^0)) (= i^0 i^post)) (= j^0 j^post)) (= n^0 n^post)) (= tmp^0 tmp^post)) (= tmp___0^0 tmp___0^post)) (= x^0 x^post)) (= y^0 y^post)))
    (cfg_trans2 pc^0 l8 pc^post l9 (and (and (and (and (and (and (and (= i^post (+ 1 i^0)) (= j^0 j^post)) (= m^0 m^post)) (= n^0 n^post)) (= tmp^0 tmp^post)) (= tmp___0^0 tmp___0^post)) (= x^0 x^post)) (= y^0 y^post)))
    (cfg_trans2 pc^0 l10 pc^post l11 (and (and (and (and (and (and (and (= i^0 i^post) (= j^0 j^post)) (= m^0 m^post)) (= n^0 n^post)) (= tmp^0 tmp^post)) (= tmp___0^0 tmp___0^post)) (= x^0 x^post)) (= y^0 y^post)))
    (cfg_trans2 pc^0 l12 pc^post l8 (and (and (and (and (and (and (and (and (<= (+ 1 n^0) (+ 0 j^0)) (= i^0 i^post)) (= j^0 j^post)) (= m^0 m^post)) (= n^0 n^post)) (= tmp^0 tmp^post)) (= tmp___0^0 tmp___0^post)) (= x^0 x^post)) (= y^0 y^post)))
    (cfg_trans2 pc^0 l12 pc^post l13 (and (and (and (and (and (and (and (and (<= (+ 0 j^0) (+ 0 n^0)) (= j^post (+ 1 j^0))) (= i^0 i^post)) (= m^0 m^post)) (= n^0 n^post)) (= tmp^0 tmp^post)) (= tmp___0^0 tmp___0^post)) (= x^0 x^post)) (= y^0 y^post)))
    (cfg_trans2 pc^0 l14 pc^post l13 (and (and (and (and (and (and (and (and (<= (+ 1 n^0) (+ 0 j^0)) (= i^0 i^post)) (= j^0 j^post)) (= m^0 m^post)) (= n^0 n^post)) (= tmp^0 tmp^post)) (= tmp___0^0 tmp___0^post)) (= x^0 x^post)) (= y^0 y^post)))
    (cfg_trans2 pc^0 l14 pc^post l15 (and (and (and (and (and (and (and (and (<= (+ 0 j^0) (+ 0 n^0)) (= j^post (+ 1 j^0))) (= i^0 i^post)) (= m^0 m^post)) (= n^0 n^post)) (= tmp^0 tmp^post)) (= tmp___0^0 tmp___0^post)) (= x^0 x^post)) (= y^0 y^post)))
    (cfg_trans2 pc^0 l16 pc^post l15 (and (and (and (and (and (and (and (= y^post y^post) (= i^0 i^post)) (= j^0 j^post)) (= m^0 m^post)) (= n^0 n^post)) (= tmp^0 tmp^post)) (= tmp___0^0 tmp___0^post)) (= x^0 x^post)))
    (cfg_trans2 pc^0 l17 pc^post l8 (and (and (and (and (and (and (and (and (and (<= (+ 0 y^0) 0) (<= 0 (+ 0 y^0))) (= i^0 i^post)) (= j^0 j^post)) (= m^0 m^post)) (= n^0 n^post)) (= tmp^0 tmp^post)) (= tmp___0^0 tmp___0^post)) (= x^0 x^post)) (= y^0 y^post)))
    (cfg_trans2 pc^0 l17 pc^post l16 (and (and (and (and (and (and (and (and (<= 1 (+ 0 y^0)) (= i^0 i^post)) (= j^0 j^post)) (= m^0 m^post)) (= n^0 n^post)) (= tmp^0 tmp^post)) (= tmp___0^0 tmp___0^post)) (= x^0 x^post)) (= y^0 y^post)))
    (cfg_trans2 pc^0 l17 pc^post l16 (and (and (and (and (and (and (and (and (<= (+ 1 y^0) 0) (= i^0 i^post)) (= j^0 j^post)) (= m^0 m^post)) (= n^0 n^post)) (= tmp^0 tmp^post)) (= tmp___0^0 tmp___0^post)) (= x^0 x^post)) (= y^0 y^post)))
    (cfg_trans2 pc^0 l9 pc^post l18 (and (and (and (and (and (and (and (= i^0 i^post) (= j^0 j^post)) (= m^0 m^post)) (= n^0 n^post)) (= tmp^0 tmp^post)) (= tmp___0^0 tmp___0^post)) (= x^0 x^post)) (= y^0 y^post)))
    (cfg_trans2 pc^0 l18 pc^post l6 (and (and (and (and (and (and (and (and (<= (+ 1 n^0) (+ 0 i^0)) (= i^0 i^post)) (= j^0 j^post)) (= m^0 m^post)) (= n^0 n^post)) (= tmp^0 tmp^post)) (= tmp___0^0 tmp___0^post)) (= x^0 x^post)) (= y^0 y^post)))
    (cfg_trans2 pc^0 l18 pc^post l17 (and (and (and (and (and (and (and (and (<= (+ 0 i^0) (+ 0 n^0)) (= y^post y^post)) (= i^0 i^post)) (= j^0 j^post)) (= m^0 m^post)) (= n^0 n^post)) (= tmp^0 tmp^post)) (= tmp___0^0 tmp___0^post)) (= x^0 x^post)))
    (cfg_trans2 pc^0 l19 pc^post l6 (and (and (and (and (and (and (and (and (and (<= (+ 0 x^0) 0) (<= 0 (+ 0 x^0))) (= i^0 i^post)) (= j^0 j^post)) (= m^0 m^post)) (= n^0 n^post)) (= tmp^0 tmp^post)) (= tmp___0^0 tmp___0^post)) (= x^0 x^post)) (= y^0 y^post)))
    (cfg_trans2 pc^0 l19 pc^post l9 (and (and (and (and (and (and (and (and (<= 1 (+ 0 x^0)) (= i^0 i^post)) (= j^0 j^post)) (= m^0 m^post)) (= n^0 n^post)) (= tmp^0 tmp^post)) (= tmp___0^0 tmp___0^post)) (= x^0 x^post)) (= y^0 y^post)))
    (cfg_trans2 pc^0 l19 pc^post l9 (and (and (and (and (and (and (and (and (<= (+ 1 x^0) 0) (= i^0 i^post)) (= j^0 j^post)) (= m^0 m^post)) (= n^0 n^post)) (= tmp^0 tmp^post)) (= tmp___0^0 tmp___0^post)) (= x^0 x^post)) (= y^0 y^post)))
    (cfg_trans2 pc^0 l15 pc^post l14 (and (and (and (and (and (and (and (= i^0 i^post) (= j^0 j^post)) (= m^0 m^post)) (= n^0 n^post)) (= tmp^0 tmp^post)) (= tmp___0^0 tmp___0^post)) (= x^0 x^post)) (= y^0 y^post)))
    (cfg_trans2 pc^0 l11 pc^post l19 (and (and (and (and (and (and (and (and (<= (+ 1 n^0) (+ 0 j^0)) (= i^0 i^post)) (= j^0 j^post)) (= m^0 m^post)) (= n^0 n^post)) (= tmp^0 tmp^post)) (= tmp___0^0 tmp___0^post)) (= x^0 x^post)) (= y^0 y^post)))
    (cfg_trans2 pc^0 l11 pc^post l10 (and (and (and (and (and (and (and (and (<= (+ 0 j^0) (+ 0 n^0)) (= y^post y^post)) (= j^post (+ 1 j^0))) (= i^0 i^post)) (= m^0 m^post)) (= n^0 n^post)) (= tmp^0 tmp^post)) (= tmp___0^0 tmp___0^post)) (= x^0 x^post)))
    (cfg_trans2 pc^0 l5 pc^post l10 (and (and (and (and (and (and (and (and (<= (+ 1 n^0) (+ 0 j^0)) (= i^0 i^post)) (= j^0 j^post)) (= m^0 m^post)) (= n^0 n^post)) (= tmp^0 tmp^post)) (= tmp___0^0 tmp___0^post)) (= x^0 x^post)) (= y^0 y^post)))
    (cfg_trans2 pc^0 l5 pc^post l4 (and (and (and (and (and (and (and (and (<= (+ 0 j^0) (+ 0 n^0)) (= y^post y^post)) (= j^post (+ 1 j^0))) (= i^0 i^post)) (= m^0 m^post)) (= n^0 n^post)) (= tmp^0 tmp^post)) (= tmp___0^0 tmp___0^post)) (= x^0 x^post)))
    (cfg_trans2 pc^0 l20 pc^post l19 (and (and (and (and (and (and (and (and (and (<= (+ 0 i^0) (+ 0 m^0)) (<= (+ 0 m^0) (+ 0 i^0))) (= i^0 i^post)) (= j^0 j^post)) (= m^0 m^post)) (= n^0 n^post)) (= tmp^0 tmp^post)) (= tmp___0^0 tmp___0^post)) (= x^0 x^post)) (= y^0 y^post)))
    (cfg_trans2 pc^0 l20 pc^post l4 (and (and (and (and (and (and (and (and (<= (+ 1 m^0) (+ 0 i^0)) (= i^0 i^post)) (= j^0 j^post)) (= m^0 m^post)) (= n^0 n^post)) (= tmp^0 tmp^post)) (= tmp___0^0 tmp___0^post)) (= x^0 x^post)) (= y^0 y^post)))
    (cfg_trans2 pc^0 l20 pc^post l4 (and (and (and (and (and (and (and (and (<= (+ 1 i^0) (+ 0 m^0)) (= i^0 i^post)) (= j^0 j^post)) (= m^0 m^post)) (= n^0 n^post)) (= tmp^0 tmp^post)) (= tmp___0^0 tmp___0^post)) (= x^0 x^post)) (= y^0 y^post)))
    (cfg_trans2 pc^0 l13 pc^post l12 (and (and (and (and (and (and (and (= i^0 i^post) (= j^0 j^post)) (= m^0 m^post)) (= n^0 n^post)) (= tmp^0 tmp^post)) (= tmp___0^0 tmp___0^post)) (= x^0 x^post)) (= y^0 y^post)))
    (cfg_trans2 pc^0 l21 pc^post l2 (and (and (and (and (and (and (and (= j^post (+ 1 j^0)) (= i^0 i^post)) (= m^0 m^post)) (= n^0 n^post)) (= tmp^0 tmp^post)) (= tmp___0^0 tmp___0^post)) (= x^0 x^post)) (= y^0 y^post)))
    (cfg_trans2 pc^0 l22 pc^post l21 (and (and (and (and (and (and (and (and (<= (+ 0 tmp^0) (+ 0 tmp___0^0)) (= i^0 i^post)) (= j^0 j^post)) (= m^0 m^post)) (= n^0 n^post)) (= tmp^0 tmp^post)) (= tmp___0^0 tmp___0^post)) (= x^0 x^post)) (= y^0 y^post)))
    (cfg_trans2 pc^0 l22 pc^post l21 (and (and (and (and (and (and (and (and (<= (+ 1 tmp___0^0) (+ 0 tmp^0)) (= x^post x^post)) (= i^post (+ 0 j^0))) (= j^0 j^post)) (= m^0 m^post)) (= n^0 n^post)) (= tmp^0 tmp^post)) (= tmp___0^0 tmp___0^post)) (= y^0 y^post)))
    (cfg_trans2 pc^0 l3 pc^post l20 (and (and (and (and (and (and (and (and (<= (+ 1 n^0) (+ 0 j^0)) (= i^0 i^post)) (= j^0 j^post)) (= m^0 m^post)) (= n^0 n^post)) (= tmp^0 tmp^post)) (= tmp___0^0 tmp___0^post)) (= x^0 x^post)) (= y^0 y^post)))
    (cfg_trans2 pc^0 l3 pc^post l22 (and (and (and (and (and (and (and (and (<= (+ 0 j^0) (+ 0 n^0)) (= tmp^post tmp^post)) (= tmp___0^post tmp___0^post)) (= i^0 i^post)) (= j^0 j^post)) (= m^0 m^post)) (= n^0 n^post)) (= x^0 x^post)) (= y^0 y^post)))
    (cfg_trans2 pc^0 l7 pc^post l0 (and (and (and (and (and (and (and (= i^0 i^post) (= j^0 j^post)) (= m^0 m^post)) (= n^0 n^post)) (= tmp^0 tmp^post)) (= tmp___0^0 tmp___0^post)) (= x^0 x^post)) (= y^0 y^post)))
    (cfg_trans2 pc^0 l23 pc^post l7 (and (and (and (and (and (and (and (= i^0 i^post) (= j^0 j^post)) (= m^0 m^post)) (= n^0 n^post)) (= tmp^0 tmp^post)) (= tmp___0^0 tmp___0^post)) (= x^0 x^post)) (= y^0 y^post)))
  )
)
